n_res = 3;
rc = [ 5, 8, 7 ];
n_tasks = 30;
d = [ 2, 4, 2, 6, 2, 5, 169, 115, 111, 156, 200, 2, 208, 319, 6, 3, 166, 239, 277, 226, 2, 100, 6, 3, 4, 104, 213, 226, 2, 3 ];
rr = [| 2, 2, 3, 2, 3, 1, 5, 5, 2, 4, 1, 2, 1, 3, 5, 2, 2, 3, 3, 1, 2, 2, 2, 4, 1, 3, 2, 4, 5, 5
      | 3, 3, 1, 2, 2, 3, 1, 1, 1, 2, 1, 3, 3, 3, 1, 1, 2, 1, 2, 2, 3, 2, 3, 3, 1, 2, 1, 1, 1, 2
      | 1, 1, 2, 2, 1, 1, 2, 1, 2, 2, 1, 1, 1, 1, 2, 1, 2, 2, 1, 1, 2, 2, 1, 2, 1, 2, 1, 2, 1, 1 |];
suc = [ { 3, 4, 5, 9, 10, 22, 25 },
       { 11, 12 },
       { 4, 7, 15, 17, 24, 25, 26, 27 },
       { 15, 19, 21 },
       { 11, 22, 24, 25 },
       { 17 },
       {  },
       { 14 },
       { 10, 23, 27 },
       { 22, 23 },
       { 17, 18, 19 },
       { 14, 24 },
       { 16, 21 },
       { 24 },
       { 17 },
       { 28 },
       { 25 },
       { 21, 25 },
       {  },
       { 23 },
       {  },
       {  },
       {  },
       { 25 },
       { 29 },
       {  },
       {  },
       {  },
       {  },
       {  } ];
